
 102   30
  10   10   10   10   10   10   10   10   10   10   10   10   10   10   10   10   10   10   10   10   10   10   10   10   10   10   10   10   10   10

   0   0   0   0   0   0   0   0   0   0   0   0   0   0   0   0   0   0   0   0   0   0   0   0   0   0   0   0   0   0   0  22 2 4 5 6 7 8 9 10 11 12 14 15 16 17 20 21 22 23 26 27 30 33 
   9   0   0   0   0   0   0   0   0   0   1   0   0   0   0   3   0   0   1   2   0   1   1   0   0   0   0   0   0   0   0  10 65 52 50 42 41 38 37 32 13 3 
   6   0   0   0   0   1   0   0   0   0   0   0   0   0   1   0   0   0   0   0   0   0   0   0   0   1   0   0   0   0   0  12 79 78 72 70 61 58 49 44 39 29 28 19 
   9   0   0   1   0   0   0   0   1   0   0   0   0   0   0   0   1   0   0   4   0   0   0   0   0   8   0   0   0   0   0  10 64 57 52 49 42 38 34 31 25 18 
   6   0   0   0   0   0   1   0   6   0   0   0   0   0  10   0   0   0   0   0   0   0   0   0   0   0   0   0   0   0   0  20 101 98 78 75 70 69 68 67 62 59 58 57 56 53 49 47 46 45 38 36 
   6   0   1   8   0   0   0   0   0   0   0   0   0   1   0   8   6   0   0   0   1   0   0   0   0   9   0   0   0   0   0  15 78 77 70 69 61 60 56 53 51 50 46 40 36 35 31 
   4   0   0   2   0   0   0   0   0   0   0   0   0   0   0   2   0   0   0   0   0  10   0   0   0   0   0   0   0   1   0  19 99 78 77 71 70 69 68 67 66 65 62 61 58 55 54 51 47 39 31 
   7   1   0   0   0   0   0   0   0   0   0   2   0   0   0   4   0   2   0   0   7   0   7   3   0   0   1   0   0   0   0  16 78 77 69 67 66 65 61 58 57 56 50 48 44 39 36 28 
   7   0   0   0   0   0   0   0   0   0   0   0   0   0   0   0   5   0   0   0   0   0   0   6   0   0   6   0   1   6   0  14 78 70 69 68 66 62 61 52 47 39 38 37 31 24 
  10   0   0   0   0   0   0   0   0   0   0   0   1   0   0   0   7   0   0   0   0   0   0   0   0   0   0   0   0   0   3  14 99 79 77 60 58 55 54 53 50 47 44 43 39 31 
   2   0   0   0   1   0   0   0   0   1   0   0   0   0   0   0   0   0   0   0   5   0   0   0   0   0   0   0   0   3   0  12 99 79 75 71 68 65 61 60 55 53 44 29 
   6   8   0   6   4   0   0   0   0   0   0   0   0   0   2   7   0   0   0   0   0   0   0   0   3   0  10   0   0   0   0  18 101 100 99 98 89 78 77 75 69 68 63 62 59 58 55 53 48 35 
   1   9   7   6   0   0   0   0   3   0   0   5   0   0   0   0   0   7  10   0   0   0   0   0   0   0   0   0   0   0   0  12 101 97 79 68 67 66 58 57 55 45 36 31 
   8   0   0   0   0   0   0   0   0   0   0  10   0   0   0   5   0   0   0   0   0   0   0   0   0   0   0   0   0   0   0  20 101 100 99 97 94 93 92 77 76 75 70 69 67 64 63 62 58 55 53 50 
   8   0   0   0   0   0   0   0   0   0   0   6   0   4   0   0   4   0   0   0   5   0   0   7   4   0   7   0   0   0   0  17 100 98 97 92 89 79 78 76 69 68 67 64 62 60 58 48 38 
   4   3  10   0   0   0   0   0   0   0   0   0   0   0   0   0   0   0   0   0   0   0   7   0   0   0   0   0   0   0   0  20 100 97 96 95 94 77 76 74 73 70 67 66 65 63 62 61 60 58 57 56 
   1   0   0   0   0   0   8   0   0   0   0   0   0   0   0   0   0   0   0   0   0   6   0   0   0   0   0   0   0   0   0  19 101 99 98 97 90 88 77 75 71 70 68 67 64 59 58 57 53 49 48 
   8   5   0   0   0   0   0   0   0   0   0   0   0   0   0   0   0   0   0   0   0   0   0   0   0   6   0   0   0   0   0  17 101 100 97 93 92 77 76 75 74 73 71 70 69 68 67 66 37 
   5   0   0   0   0   0   0   0   0   0   0   0   0   0   0   0   5   0   0   0   6   0   0   0   0   0   0   0   0   0   6  14 99 98 92 76 75 74 69 68 67 63 60 53 48 47 
   1   0   0   0   0   0   0   1   0   5   0   0   0   0   0   0   0   0   0   0   0   0   8   0   0   0   0   0   0   0   0  14 99 98 93 83 70 69 68 66 63 62 60 55 51 43 
   2   0   0  10   0   0   0   0   0   0   4   9   0   0   0   0   0   0   0   0   0   0   0   0   0   0   0   0   0   0   0  10 100 75 71 69 67 65 50 48 42 39 
   1   0   0   0   0   0   0   9   0   0   5   0   0   0   0   0   0   0   5   5   6   0   0   0   0   5   0   0   0   5   0  19 99 98 97 96 94 93 92 89 79 77 76 75 71 69 67 63 62 58 55 
   9   0   0   0   0   6   0   0   0   0   0   0   7   0   0  10   0   0   0   0   9   0   0   0   0   0   0   0   8   0   0  13 92 90 86 78 77 76 75 73 70 68 64 53 47 
   6   0   0   0   0   0   0   0   0   0   0   0   0   0   4   0   0   0   0   0   0   0   0   8   0   0   0   0   0   0   0  17 101 100 99 98 97 95 94 92 90 89 88 86 77 75 67 58 48 
   5   0   0   0   6   0   0   0   0   0   9   0   0   0   0   0   0   0   0   0   0   0   0   0   0   0   0   0   0   0   0  14 101 100 96 95 94 93 89 74 73 69 66 62 58 56 
   7   0   0   0   8   0   0   0   0   0   0   0   0   0   0   0   0   0   0   0   0   0   0   0   0   0   0   0   0   0   0  13 98 97 94 93 92 78 77 76 74 70 65 64 53 
  10   0   0   0   5   0   0   0   0   0   0   5   0   0   0   0   7   0   0   0   0   0   0   0   0   0   0   4   0   0   0  12 101 94 93 89 76 75 67 66 61 58 56 55 
   9   0   0   0   0   0   0   4   0   0   0   0   6   0   0   0   0   0   7   0   0   0   0   0   0   0   0   0   0   0   0  16 101 97 96 95 94 93 92 91 90 89 88 84 76 75 71 55 
   9   0   6   0   7   0   6   0   0   6   0   0   6   0   0   0   0   0   8   2   0   0   0   0   0   2   0   0   0   0   0   8 97 95 94 92 90 77 62 36 
   2   0   0   0   0   0   0   0   5   0   0   0   0   0   0   0   0   0   0   0   0   0   0   0   0   0   0   0   6   5   0  17 101 98 96 94 93 92 90 88 87 83 82 79 78 75 74 73 70 
   8   0   0   0   8   0   6   0   0   0   0   7   0   0   0   0   0   8   0   0   0   0   0   0   0   0   0   0   0   0   0  10 100 98 92 90 89 88 76 75 59 48 
   3   0   0   0   5   0   0   0   0   6   0   0   0   0   0   8   0   0   0   0   0   0   0   0   0   0   0   0   0   0   6  16 100 99 98 97 92 90 88 87 86 85 84 83 82 78 76 68 
   5   0   0   0   0   0   0   0   0   0   0   0   0   0   0   0   0   0   0   0   0   0   0   0   0   0   5   7   0   0   0  12 101 100 97 88 86 84 83 78 77 76 70 68 
   5   0   0   5   0   0   0   0   0   0   0   4  10   0   0   0   0   0   0   8   8   0   0   0   0   0   0   8   0   8   0  14 101 100 98 92 90 89 87 85 84 83 82 80 75 62 
   8   0   0   0   0   0   0   8   0   0   0   0   0   0   8   0   0   0   0   0   0   0   0   0   0   0   0   0   0   0   0  13 97 96 95 94 92 91 90 88 83 81 76 74 67 
   3   0   8   0   5   0   0   0   0   0   0   0   0   0   0   0   0   0   5   0   0   0   0   0   0   0   0   0   0   0   0  12 93 91 89 88 85 84 83 81 76 74 73 64 
  10   0   0   0   0   0   0   6   0   0   0   0   0   0   0   0   9   0   0   0   9   0   0   0   0   0   0   8   0   0   0  12 99 98 96 95 94 91 89 88 86 82 81 58 
   3   0   0   0   0   0   6   0   0   0   0   0   0   5   0   0   0   0   0   0   0   0   0   0   0   0   7   0   0   7   0  10 99 95 91 90 88 84 83 81 77 55 
   7   0   0   0   0   0   0   0   0   6   0   0   0   0   0   0   0   0   0   0   0   0   0   0  10   0   0   0   0   9   0  13 96 94 93 92 91 90 89 86 85 84 83 82 63 
   2   0   0   5   0   0   0   5   0   0   0   0   0   0   0   0   0   0   0   0   0   0   0   0   0   0   0   5   0   0   0   9 95 92 90 89 86 82 75 63 58 
   2   0   0   0   0   0   0   0   0   0   0   0   0   0   0   0   0   6   0   0   0   6   0   0   0   8   0   0   0   0   0  13 100 99 97 95 93 91 88 87 86 84 83 81 73 
   2   0   0   0   0   0   6   0   0   0   0   0   0   9   0   0   0   0   0   6   0   0   0   0   0   0   0   0   0   0   0   5 98 97 93 89 53 
  10   0   0   0   0   0   0   0   0   0   8   8   0   0   0   0   0   0   0   0   0   8   6   0   0   0   0   0   7   0   0  10 100 97 91 90 88 87 86 84 80 75 
   5   0   0   0   0   0   0   0   0   0   0   0   0   5   0   0   0   0   0   0   0   0   0   4   0   9   0   0   0   0   0   8 100 88 85 84 83 82 80 62 
   6   0   0   0   0   0   0   0   0   0   0   4   0   0   0   0   0   0   0   0   0   0   0   0   0   0   0   0   6   7   0   8 99 95 89 88 85 84 73 71 
  10   0   0   0   0   2   0   0   0   0   0   0   0   0   0   0   0   0   0   0   0   0   0   6   0   0   0   0   0   0   0   8 100 99 89 85 84 83 74 73 
   1   0   5   0   0   8   6   0   9   0   0   0   4   0   0   0   0   0   0   0   0   5   0   0   0   0   7   0   0   0   5   9 97 93 89 88 85 83 82 81 80 
   5   0   0   6   0   0   0   0   7   7   8   0   0   0   0   0   0   0   0   0   0   0   0   5   0   0   9   0   0   0   0   8 96 93 91 85 84 82 81 73 
  10   0   0   0   0   0   0   0   0   5   0   0   0   0   9   0   0   0   0   0   0   0   0   0   0   0   0   0   0   0   0   7 100 93 92 85 83 81 66 
   3   0   0   0   0   9   0   0   0   0   0   0   0   0   0   0   0   0   0   0   0   6   5   0   0   6   0   0   0   0   0   8 98 96 90 89 88 84 83 80 
  10   0   0   0   0   0   0   0   0   0   0   0   0   0   0   0   0   0   0   0   0   0   9   7   0   8   0   0   0   8   0   8 101 97 95 92 87 82 81 80 
   8   0   0   5   0   7   0   0   0   8   0   0   0   3   0   4   0   5   7   5   0   0   7   0   0   0   0   0   0   0   0   7 94 89 83 82 81 80 77 
   5   0   0   0   0   0   0   0   0   0   0   0   0   6   0   0   8   0   0   0   0   0   0   0   0   0   0   5   0   0   0   6 95 91 84 83 81 66 
   5   0   0   0   0   0   0   0   0   0   0   0   6   0   0   0   0   0   0   0   0   5   0   0   0   7   7  10   0   0   0   6 85 83 82 81 80 74 
   4   7   0   8   0  10   0   0   0   0   0   0   0   0   4   9   0   0   0   0   0   0   0   0   4   0   0   0   3   0   0   5 87 85 82 74 73 
   1   0   0   0   0   0   0   0   0   0   0   0   0   0   0   0   0   0   0   0   0   0   0   0   0   6   5   0   0   0   0   6 99 92 88 84 81 80 
   2   0   5   0   0   0   0   0   0   0   4   4   0   0   0   0   0   0   4   0   0   0   5   0   0   0   0   0   4   0   0   6 93 87 86 85 83 81 
  10   0   0   0   7   0   4   0   0   0   0   0   0   0   0   0   0   0   0   0   0   8   0   0   0   0   0   0   7   0   0   5 87 85 84 83 80 
   1   0   0   5  10   0   0   0   0   7   0   0   8   0   0   0   0   0   0   0   0   0   0   0   0   0   0   4   0   0   0   5 87 86 83 82 81 
   2   0   0  10   0   0   0   0   0   0   0   0   0   0   0   0   0   6   0   0   0   0   0   0   0   0   0   0   0   0   0   5 101 85 84 82 80 
   4   0   5   0   0   6   0   0   0   0   5   0   0   8  10   2   0   0   0  10   7   6   0   0   0   0   0   0   0   0   0   4 98 90 88 81 
   7   0   0   0   0   0   0   0   0   0   0   0   0   0   0   0   0   0   0   0   0   0   0   0   0   4   0   0   0   8   0   3 91 86 81 
   6   0   0   0   0   0   6   0   0   0   0   0   0   0   0   0   0   0   0   0   7   0   0   0   0   5   0   0   0   0   7   3 88 87 80 
   7   0   0   0   0   0   0   0   0   0   0   0   0   0   0   0   0  10   0   0   0   0   7   0   0   0   0   4   0   0   0   3 96 87 82 
   9   0   0   0   0   0   0   0   0   0   0   0   0   0   0   0   0   0   0   0   0   5   0   0   0   0   3   0   0   0   0   3 90 85 80 
   4   0   0   7   0   0   0   0   0   0   0   0   0   0   0   0   0   0   0   0   0   0   0   0   0   6   0   0   6   0   0   2 82 80 
   5   0   0   0   0   4   0   0   0   0   0   0   0   0   0   0   0   0   0   0   0   0   0   0   0   0   0   0   0   0   0   2 84 82 
   2   0   0   6   0   0   0   0   7   0   0   0   0   0   0   0   0   0   5   0   0   0   0   0   0   0   0   6   0   0   0   2 94 81 
   7   0   0   0   0   0   0   0   0   0   0   0   0   0   0   0   0   0   0   0   0   0   0   5   0   0   0   0   9   0   0   2 90 82 
   1   0   0   0   6   9   0   0   0   0   0   0   0   0   0   0   0   0   0   0   0   0   0   0   0   0   6   0   0   0   0   2 89 85 
   2   0   0   0   3   0   0   0   5   0   0   0   0   0   0   0   0   0   0   0   0   0   0   0   9   0   0   0   0   0  10   2 83 82 
   1   0   0   0   0   0   0   0   0   0   0   0   0   0   0   3   0   0   0   0   0   0   0   0   0   8   0   0   0   0   0   2 88 81 
   7   6   0   0   0   0   0   8   0   0   0   0   0   0   0   0   0   0   6   0   4   0   0   0   0   0   0   0   0   0   0   1 80 
  10   0   0   0   0   0   7   0   0   0   0   0   0   0   0   0   0   0   7   6   0   0   0   0   0   0   0   0   0   0   8   1 86 
   3   0   0   0   0   0   0   0   5   8   0   0   0   8   0   0   0   0   0   8   3   0   0   8   0   0   4   0   0   0   0   1 81 
   6   0   0   0   7   0   0   0   0   0   7   0   0   0   6   0   5   0   0   0   0   0   0   0   0   0   6   0   0   0   0   1 80 
   9   6   0   0   0   0   0   6   0   0   0   0   0   0   0   0   0   4   0   0   7   0   4   0   0   0   0   0   0   0   0   1 87 
  10   0   0   0   0   0   6   0   0   0   0   0   0   0   0   0   0   0   0   0   0   0   0   0   0   0   0   0   0   0   0   1 81 
   8   0   0   0   0   0   0   0  10   0   0   0   0   0   0   8   0   0   0   0   0   0   0   0   0   0   0   0   9   0   0   1 84 
   9   0   0   0   0   0   0   6   0   0   0   0   0   0   0   4   5   8   0   0   0   0   0   5   0   0   0   0   7   0   3   1 102
   2   0   0   0   0   0   9   0   0   0   0   0   0   0   0   7   0   0   0   0   0   0   0   0   0   0   0   0   0   0   0   1 102
   4   8   0   0   0   0   0   0   0   0   0   0   0   0   0   7   8   0   0   0   0   0   0   4   0   0   0   0   0   0   0   1 102
   6   0   0   0   0   0   0   0   0   0   0   0   0   0   0   0   0   0   0  10   0   0   0   7   0   0   0   8   0   5   0   1 102
   7   0   0   0   8   4   0   0   0   0   5   0   0   4   0   8   9   0   0   0   0   0   0   0   7   0   0   0   6   0   0   1 102
   2   0   5   7   0   0   0   0   0   0  10   0   0   0   6   0   0   0   0   0   0   0   0  10   0   0   0   0   5   0   0   1 102
   2   0   0   0   0   0   0   0   0   0   0   0   0  10   0   0   0   6   0   0   0   0   0   0   0   0   0   0   0   0   0   1 102
   1   4   0   0   0   0   0   0   0   0   0   0   0   0   0   0   0   0   0   0   0   0   0   0   0   6   0   0   0   0   0   1 102
   4   0   6   0   0   0   0   0   0   0   0   0   0   0   0   0   0   0   0   0   0   0   0   0   0   0   0   0   0   0   0   1 102
   5   0   0   0   0   0   0   0   0   0   0   0   0   0   0   0   0   0   0   0   0   0   0   4   0   0   0   0   0   0   0   1 102
   1   0   0   0   0   0   0   6   0   0   0   8   0   0   0   0   0   2   0   0   0   0   0   0   7   0   0   4   0   0   0   1 102
   6   6   0   0   0   0   0   7   0   0   0   0   0   0   0   0   0   0   7   0   0   0   0  10   0   0   7   0   0   0   0   1 102
   1   0   0   0   0   0   0   0   0   0   0   0   0   8   0   0   0   0   0   0   0   0   0   0   0   0   0   0   0   0   0   1 102
  10   0   0   8   0   0   0   0   0   0   0   0   6   0   0   0   0   0   0   0   0   0   0   0   0   0   0   0   0   0   0   1 102
   2   0   0   0   6   0   0   0   0   0   0   0   0   0   0   0   0   0   0   0   0   0   0   0   0   0   0   0   0   0   0   1 102
   1   0   0   3   0   0   7   0   0   3   0   0   0   0   0   0   0   0   0   0   0   0   0   0   4   0   0   5   0   0   0   1 102
   4   6   0   0   0   0   0   0   0   7   0   0   0   0   0   0   0   0   0   0   0   0   0   0   0   0   0   0   0   0   0   1 102
   6   0   0   0   0   0   0   6   0   7   0   0   0   7   0  10   0   7   0   0   0   0   0   3   0   0   0   0   0   0   0   1 102
   7   0   0   0   0   0   0   0   8   9   0   0   0   0   0   0   0   0   0   0   0   0   0   0   0   7   0   0   0   0   0   1 102
   4   0   0   0   0   0   6   0   0   5   0   0   0   0   0   0   5   5   0   0   0   0   0   0   0   0   0   0   0   0   0   1 102
   8   9   7   0   0   0   0   0   0   0   0   0   0   6   0   5   0   8   0   0   0   0   0   0   0   0   0   0   0   0   0   1 102
   3   0   7   0   0   0   0   0   0   0   0   0   0   0   0   0   0   0   0   0   0   0   0   0   0   3   0   0   0   0   0   1 102
   0   0   0   0   0   0   0   0   0   0   0   0   0   0   0   0   0   0   0   0   0   0   0   0   0   0   0   0   0   0   0   0 
